g3 1 1 0	# problem unknown
 120 0 1 0 0 	# vars, constraints, objectives, general inequalities, equalities  
 0 1 	# nonlinear constraints, objectives
 0 0	# network constraints: nonlinear, linear
 0 11 0 	# nonlinear vars in constraints, objectives, both
 0 0 0 1	# linear network variables; functions; arith, flags
 0 0 0 0 0 	# discrete variables: binary, integer, nonlinear (b,c,o)
 0 120 	# nonzeros in Jacobian, obj. gradient
 0 0	# max name lengths: constraints, variables
 0 0 0 0 0	# common exprs: b,c,o,c1,o1
O0 0
o54
10
o44
o2
n0.1
o2
v2
v3
o44
o2
n0.1
o2
v3
v4
o44
o2
n0.1
o2
v4
v5
o44
o2
n0.1
o2
v5
v6
o44
o2
n0.1
o2
v6
v7
o44
o2
n0.1
o2
v7
v8
o44
o2
n0.1
o2
v8
v9
o44
o2
n0.1
o2
v9
v10
o44
o2
n0.1
o2
v10
v0
o44
o2
n0.1
o2
v0
v1
x120
0 0.0
1 0.0
2 0.0
3 0.0
4 0.0
5 0.0
6 0.0
7 0.0
8 0.0
9 0.0
10 0.0
11 0.0
12 0.0
13 0.0
14 0.0
15 0.0
16 0.0
17 0.0
18 0.0
19 0.0
20 0.0
21 0.0
22 0.0
23 0.0
24 0.0
25 0.0
26 0.0
27 0.0
28 0.0
29 0.0
30 0.0
31 0.0
32 0.0
33 0.0
34 0.0
35 0.0
36 0.0
37 0.0
38 0.0
39 0.0
40 0.0
41 0.0
42 0.0
43 0.0
44 0.0
45 0.0
46 0.0
47 0.0
48 0.0
49 0.0
50 0.0
51 0.0
52 0.0
53 0.0
54 0.0
55 0.0
56 0.0
57 0.0
58 0.0
59 0.0
60 0.0
61 0.0
62 0.0
63 0.0
64 0.0
65 0.0
66 0.0
67 0.0
68 0.0
69 0.0
70 0.0
71 0.0
72 0.0
73 0.0
74 0.0
75 0.0
76 0.0
77 0.0
78 0.0
79 0.0
80 0.0
81 0.0
82 0.0
83 0.0
84 0.0
85 0.0
86 0.0
87 0.0
88 0.0
89 0.0
90 0.0
91 0.0
92 0.0
93 0.0
94 0.0
95 0.0
96 0.0
97 0.0
98 0.0
99 0.0
100 0.0
101 0.0
102 0.0
103 0.0
104 0.0
105 0.0
106 0.0
107 0.0
108 0.0
109 0.0
110 0.0
111 0.0
112 0.0
113 0.0
114 0.0
115 0.0
116 0.0
117 0.0
118 0.0
119 0.0
r
b
0 0 10.0
0 0 10.0
0 0 10.0
0 0 10.0
0 0 10.0
0 0 10.0
0 0 10.0
0 0 10.0
0 0 10.0
0 0 10.0
0 0 10.0
0 0 10.0
0 0 10.0
0 0 10.0
0 0 10.0
0 0 10.0
0 0 10.0
0 0 10.0
0 0 10.0
0 0 10.0
0 0 10.0
0 0 10.0
0 0 10.0
0 0 10.0
0 0 10.0
0 0 10.0
0 0 10.0
0 0 10.0
0 0 10.0
0 0 10.0
0 0 10.0
0 0 10.0
0 0 10.0
0 0 10.0
0 0 10.0
0 0 10.0
0 0 10.0
0 0 10.0
0 0 10.0
0 0 10.0
0 0 10.0
0 0 10.0
0 0 10.0
0 0 10.0
0 0 10.0
0 0 10.0
0 0 10.0
0 0 10.0
0 0 10.0
0 0 10.0
0 0 10.0
0 0 10.0
0 0 10.0
0 0 10.0
0 0 10.0
0 0 10.0
0 0 10.0
0 0 10.0
0 0 10.0
0 0 10.0
0 0 10.0
0 0 10.0
0 0 10.0
0 0 10.0
0 0 10.0
0 0 10.0
0 0 10.0
0 0 10.0
0 0 10.0
0 0 10.0
0 0 10.0
0 0 10.0
0 0 10.0
0 0 10.0
0 0 10.0
0 0 10.0
0 0 10.0
0 0 10.0
0 0 10.0
0 0 10.0
0 0 10.0
0 0 10.0
0 0 10.0
0 0 10.0
0 0 10.0
0 0 10.0
0 0 10.0
0 0 10.0
0 0 10.0
0 0 10.0
0 0 10.0
0 0 10.0
0 0 10.0
0 0 10.0
0 0 10.0
0 0 10.0
0 0 10.0
0 0 10.0
0 0 10.0
0 0 10.0
0 0 10.0
0 0 10.0
0 0 10.0
0 0 10.0
0 0 10.0
0 0 10.0
0 0 10.0
0 0 10.0
0 0 10.0
0 0 10.0
0 0 10.0
0 0 10.0
0 0 10.0
0 0 10.0
0 0 10.0
0 0 10.0
0 0 10.0
0 0 10.0
0 0 10.0
0 0 10.0
k119
0
0
0
0
0
0
0
0
0
0
0
0
0
0
0
0
0
0
0
0
0
0
0
0
0
0
0
0
0
0
0
0
0
0
0
0
0
0
0
0
0
0
0
0
0
0
0
0
0
0
0
0
0
0
0
0
0
0
0
0
0
0
0
0
0
0
0
0
0
0
0
0
0
0
0
0
0
0
0
0
0
0
0
0
0
0
0
0
0
0
0
0
0
0
0
0
0
0
0
0
0
0
0
0
0
0
0
0
0
0
0
0
0
0
0
0
0
0
0
G0 120
0 -100.0
1 -110.0
2 -10.0
3 -20.0
4 -30.0
5 -40.0
6 -50.0
7 -60.0
8 -70.0
9 -80.0
10 -90.0
11 -1000.0
12 -1010.0
13 -1020.0
14 -1030.0
15 -1040.0
16 -1050.0
17 -1060.0
18 -1070.0
19 -1080.0
20 -1090.0
21 -1100.0
22 -1110.0
23 -1120.0
24 -1130.0
25 -1140.0
26 -1150.0
27 -1160.0
28 -1170.0
29 -1180.0
30 -1190.0
31 -1200.0
32 -120.0
33 -130.0
34 -140.0
35 -150.0
36 -160.0
37 -170.0
38 -180.0
39 -190.0
40 -200.0
41 -210.0
42 -220.0
43 -230.0
44 -240.0
45 -250.0
46 -260.0
47 -270.0
48 -280.0
49 -290.0
50 -300.0
51 -310.0
52 -320.0
53 -330.0
54 -340.0
55 -350.0
56 -360.0
57 -370.0
58 -380.0
59 -390.0
60 -400.0
61 -410.0
62 -420.0
63 -430.0
64 -440.0
65 -450.0
66 -460.0
67 -470.0
68 -480.0
69 -490.0
70 -500.0
71 -510.0
72 -520.0
73 -530.0
74 -540.0
75 -550.0
76 -560.0
77 -570.0
78 -580.0
79 -590.0
80 -600.0
81 -610.0
82 -620.0
83 -630.0
84 -640.0
85 -650.0
86 -660.0
87 -670.0
88 -680.0
89 -690.0
90 -700.0
91 -710.0
92 -720.0
93 -730.0
94 -740.0
95 -750.0
96 -760.0
97 -770.0
98 -780.0
99 -790.0
100 -800.0
101 -810.0
102 -820.0
103 -830.0
104 -840.0
105 -850.0
106 -860.0
107 -870.0
108 -880.0
109 -890.0
110 -900.0
111 -910.0
112 -920.0
113 -930.0
114 -940.0
115 -950.0
116 -960.0
117 -970.0
118 -980.0
119 -990.0
